c This is an instance of the heur track of PACE 2020 Challenge, see https://pacechallenge.org/2020/ 
c TYPE: infrastracture 
c ORIGIN: https://gitlab.com/rvb/mwcarp-ob 
c DESCRIPTION: a road network from the Ob generator by René van Bevern, Christian Komusiewicz, and Manuel Sorge (cities that are divided into several components by a river) 
p tdp 401 732
1 21
1 2
21 22
21 40
4 3
4 5
4 23
3 2
3 42
5 24
5 6
24 23
24 44
24 25
6 7
6 25
8 9
8 7
8 27
9 10
9 27
9 28
10 11
10 29
10 30
27 26
27 47
27 48
27 28
20 39
20 19
39 62
39 38
54 55
54 53
54 74
55 56
55 75
55 34
62 103
62 61
103 102
103 122
74 73
74 75
74 94
73 53
73 93
81 80
81 63
81 104
81 82
80 79
80 124
90 111
90 50
90 89
90 91
111 110
111 112
111 134
118 117
118 97
118 98
118 142
118 119
118 141
117 97
117 116
117 140
120 121
120 101
120 144
121 122
121 102
121 145
130 129
130 131
130 153
129 128
129 108
129 152
167 211
167 147
167 168
167 190
211 235
211 212
211 190
210 189
210 234
210 209
189 166
189 188
229 252
229 230
229 228
252 251
252 276
252 253
235 257
235 236
257 258
257 294
251 250
251 228
251 275
250 274
250 227
250 249
255 254
255 232
255 279
255 256
254 278
254 231
254 253
272 271
272 309
272 273
272 248
271 246
271 247
271 270
271 289
274 273
274 275
275 276
275 311
275 313
276 277
282 283
283 284
283 301
285 286
285 266
285 284
285 303
286 267
286 304
291 314
291 290
291 278
291 292
314 313
314 315
314 332
317 335
317 281
317 316
317 293
335 334
335 360
331 356
331 330
331 332
331 313
356 330
356 355
356 357
356 375
356 376
349 348
349 350
349 325
348 324
348 347
348 369
361 336
361 379
361 362
336 318
336 319
336 337
379 380
379 362
380 362
385 384
385 386
385 342
384 383
384 341
396 395
396 397
396 375
395 394
395 375
395 374
400 401
400 359
400 399
401 360
2 22
7 26
28 49
28 29
11 12
11 31
12 32
12 13
12 31
12 33
32 31
32 33
13 14
13 33
31 51
31 52
31 30
14 15
14 34
16 17
16 35
17 18
17 36
18 19
18 37
36 35
36 37
36 58
19 38
37 38
37 59
22 41
23 43
44 43
44 45
44 66
25 26
25 45
26 47
47 46
47 48
47 68
49 48
49 50
49 29
49 70
29 30
30 51
51 50
51 52
51 71
52 72
33 34
35 57
38 61
40 79
40 41
79 123
41 63
41 42
63 64
42 64
42 43
64 65
64 82
43 65
65 66
65 83
45 46
45 67
46 86
48 69
68 69
68 87
70 89
70 69
72 71
72 92
56 57
56 76
75 95
75 76
57 58
57 77
57 76
58 59
77 76
77 97
59 99
59 60
99 98
99 78
99 119
99 100
60 61
60 78
61 78
61 101
78 100
66 67
66 84
67 85
85 108
85 86
85 84
69 88
87 109
87 86
87 88
89 88
89 110
71 91
92 91
92 113
93 94
93 114
76 96
76 95
96 95
96 97
95 94
95 116
100 101
123 147
123 124
104 105
104 125
82 83
82 105
83 106
83 84
106 105
106 127
106 107
84 107
107 108
107 128
108 109
109 110
109 131
110 133
91 112
91 113
113 136
113 135
94 115
115 114
115 138
115 116
97 98
119 142
101 102
122 146
105 126
126 125
126 127
126 170
127 150
127 128
112 135
135 134
135 136
114 137
137 138
137 158
137 159
138 160
138 139
116 139
139 160
139 140
139 161
142 164
142 141
142 143
146 145
146 166
147 148
124 125
124 148
125 149
149 169
149 148
128 151
131 154
131 132
154 153
154 155
154 175
132 133
132 155
133 134
160 181
160 180
140 162
140 141
162 161
162 163
162 183
141 163
164 163
164 185
143 144
143 186
144 145
144 165
186 185
186 187
186 207
166 165
148 168
168 169
168 190
169 170
169 190
169 191
150 171
150 151
171 172
171 193
171 170
151 152
151 172
152 173
152 153
173 172
173 194
173 195
173 174
153 174
174 175
174 196
155 176
156 157
156 177
157 179
157 158
179 200
179 178
179 180
179 158
158 159
159 180
181 180
181 182
181 202
161 182
182 203
182 183
163 184
183 204
183 184
184 185
165 187
190 212
190 213
170 192
172 194
194 193
194 216
194 195
194 215
195 196
195 217
175 176
175 197
197 196
197 219
177 198
177 178
198 220
198 199
178 199
199 200
199 221
200 201
200 222
180 201
201 202
201 224
204 203
204 228
204 205
185 205
185 206
187 188
187 208
207 206
207 231
207 208
188 209
212 213
212 236
192 191
192 193
192 214
191 213
193 215
216 215
216 217
216 239
215 214
215 238
196 218
220 221
220 243
222 221
222 245
222 246
222 223
202 225
202 203
225 224
225 226
225 248
203 226
228 227
228 205
205 206
206 230
231 230
231 232
208 209
208 232
209 233
234 233
234 256
213 214
213 237
237 236
237 238
237 259
217 240
217 218
239 262
239 238
239 240
240 241
240 263
218 241
218 219
241 242
241 264
219 242
221 244
244 243
244 268
244 245
245 269
245 246
246 223
246 247
246 270
223 224
224 247
226 227
226 249
230 253
253 277
232 233
256 281
236 258
258 259
258 295
238 261
262 261
262 263
242 265
243 267
268 267
268 269
269 270
269 287
269 288
247 248
248 249
249 273
279 280
279 292
279 293
279 278
281 280
259 296
259 260
295 294
295 296
295 319
296 297
296 320
296 319
260 261
260 297
261 298
263 264
264 265
266 267
289 288
289 308
309 308
309 310
273 310
310 328
310 327
310 311
311 328
311 329
311 312
311 330
277 278
277 290
280 293
292 315
284 302
304 305
304 303
304 322
287 306
287 288
288 308
308 307
308 326
290 313
315 316
315 333
293 316
294 318
318 319
297 339
297 298
339 338
298 299
299 300
300 301
302 303
302 321
305 306
305 323
306 323
306 307
306 324
323 346
323 347
307 325
324 325
328 352
328 354
327 352
327 326
312 313
312 330
313 332
330 329
330 355
316 334
333 332
333 358
333 334
334 359
319 320
319 337
320 338
338 337
338 362
338 363
321 322
321 344
322 346
346 345
346 368
346 347
347 389
325 326
326 350
350 370
350 351
352 351
352 353
352 372
329 354
332 357
332 358
358 378
358 359
358 377
358 357
360 359
337 362
340 341
340 365
341 342
342 343
343 344
344 345
344 366
345 367
368 367
368 388
369 370
369 390
370 371
370 391
351 371
371 392
371 372
353 354
353 373
372 373
372 393
354 355
354 374
355 375
374 373
357 377
377 376
377 378
377 397
377 398
378 399
363 364
363 381
364 365
364 382
365 383
366 386
366 367
386 387
367 387
390 389
390 391
392 391
392 393
373 394
394 393
376 397
397 398
381 382
382 383
387 388
388 389
398 399
